Maximize
  945.3919654933202 C0(6) + 4397.667165453231 C1(16) - 127.7762031098 C2(1)
   + 3517.721783503881 C3(15) + 1522.4266455446 C4(6)
   + 849.0933040854001 C5(4) + 624.1614022091001 C6(3)
   + 3001.498561151169 C7(15) + 2307.84714891751 C8(13)
   + 1757.63098398684 C9(14) + 956.16207062116 C10(9)
   + 1395.21406679161 C11(7) + 2077.6688267523 C12(5)
   + 1429.70191111108 C13(7) + 957.35273957864 C14(5)
   + 703.64614418603 C15(4) + 2061.08036411223 C16(9)
   + 361.92240695669 C17(5) + 1128.16587311899 C18(8)
   + 1477.62939697407 C19(7) + 645.4475469238698 C20(4)
   + 1325.62236965637 C21(9) - 12.31391554929002 C22(2)
   + 1431.55887522372 C23(9) + 577.6914500856 C24(7)
   + 898.33717217347 C25(6) + 3330.131542058731 C26(13)
   - 5.846684408270022 C27(2) + 1723.24336819999 C28(9)
   + 1585.93578737915 C29(8) + 1151.04021420489 C30(5)
   + 894.14931903282 C31(6) + 1328.1474856145 C32(8)
   + 2122.67981867762 C33(13) + 2856.99381213612 C34(13)
   - 200.8560389065 C35(1) + 3358.864114820201 C36(15)
   + 2698.87719424417 C37(16) + 1401.21382463528 C38(8)
   + 723.59857665249 C39(4) + 2197.339159046509 C40(15)
   + 2359.01241636817 C41(17) + 857.8397444517799 C42(7)
   + 1744.69675414958 C43(14) + 2665.24822307187 C44(13)
   + 1791.21230120651 C45(11) + 1327.50812266351 C46(10)
   + 2672.17409573822 C47(14) + 879.8544175795 C48(4)
   + 998.92718492423 C49(10) + 960.8981239134901 C50(7)
   + 2506.50960944071 C51(13) + 1141.495551032 C52(7)
   + 1252.1384958182 C53(8) + 845.15971044911 C54(5)
   + 2695.386960171879 C55(13) + 1680.30624935833 C56(9)
   + 2035.17380092226 C57(12) + 1587.18274966052 C58(7)
   + 34.25268780637998 C59(3) + 772.4306942635901 C60(5)
   + 2401.27278731536 C61(11) + 1532.10454340807 C62(11)
   - 71.43305332390001 C63(2) + 626.2362757272699 C64(6)
   + 1285.66115903228 C65(9) + 52.96800484266998 C66(2)
   + 894.3341969646599 C67(5) + 525.0555119235 C68(6)
   + 3609.425509828531 C69(15) + 3752.513026613231 C70(15)
   - 133.52006605052 C71(1) + 1888.915957141679 C72(14)
   + 2763.572892678371 C73(12) + 1353.0650863842 C74(6)
   + 1984.674010430343 C75(15) + 333.858889332951 C76(5)
   + 2562.90188001256 C77(14) + 1454.61948769218 C78(10)
   + 1689.48595508743 C79(12) + 2848.226927037111 C80(12)
   + 3212.797870756061 C81(14) - 37.85614581150003 C82(2)
   + 1329.259562633191 C83(12) + 2246.790471734923 C84(16)
   + 505.1805993114109 C85(4) + 4155.292109069241 C86(17)
   + 1773.089265842121 C87(12) + 3459.116195638191 C88(14)
   + 1651.518027068734 C89(13) + 719.2992462361341 C90(8)
   + 2316.459446548271 C91(12) + 1849.469686165291 C92(12)
   + 916.860137550224 C93(6) + 413.364268362461 C94(6)
   + 351.14799710058 C95(4) + 3767.36551997139 C96(17)
   + 2551.52253176943 C97(13) + 222.23711724815 C98(5)
   + 1474.22306245734 C99(8) + 3384.97687328626 C100(15)
   + 3511.96292579881 C101(15) - 192.3851721682 C102(1)
   + 2827.079764230829 C103(14) + 2811.825296221679 C104(17)
   + 1469.7099294706 C105(10) + 2048.87862059065 C106(11)
   + 2352.536594772109 C107(15) + 2234.20812850684 C108(13)
   + 2436.11774755397 C109(15) + 1849.35092243709 C110(12)
   + 2035.25740758488 C111(11) + 1082.37514615659 C112(8)
   + 1141.45164857891 C113(7) + 1419.51620061759 C114(6)
   + 618.4262233421699 C115(5) + 532.87725280771 C116(7)
   + 395.2795329496199 C117(3) + 602.2327166908601 C118(6)
   + 1459.1387759009 C119(6) + 2567.63923175296 C120(14)
   + 839.8984120126299 C121(4) + 1164.58921617578 C122(6)
   + 583.0517650974 C123(4) + 720.0585314584698 C124(6)
   + 2094.24203620216 C125(14) + 491.8921187023201 C126(6)
   + 1246.91760527533 C127(8) + 2911.20588206617 C128(13)
   + 1350.29646120171 C129(10) + 1112.51203431235 C130(11)
   + 2160.735701104 C131(12) + 1696.80438626385 C132(11)
   + 2225.43775538983 C133(13) + 2588.68320727565 C134(11)
   + 453.5338913637199 C135(5) + 499.1169862707 C136(5)
   + 3993.12753246506 C137(16) + 4023.852859863709 C138(16)
   - 110.3111246857 C139(1) + 3207.00303702085 C140(16)
   + 279.9208655566 C141(4) + 2672.00229362591 C142(15)
   + 522.3384883116099 C143(6) + 2166.366765324629 C144(14)
   + 2037.546112616009 C145(14) + 722.4866564486799 C146(8)
   + 3310.744550288259 C147(17) + 325.7848954190999 C148(4)
   + 2335.32604828364 C149(9) + 146.65297736471 C150(3)
   - 6.982844454320016 C151(2) + 34.17704404525998 C152(2)
   + 229.420509254 C153(3) - 89.94849877258 C154(2)
   + 485.8992987542 C155(2) + 154.89714399436 C156(3)
   + 664.42713460676 C157(3) + 1304.45192408628 C158(9)
   + 1589.7101752395 C159(10) + 1089.28014524897 C160(6)
   + 625.0207447927198 C161(8) + 1708.36923093999 C162(9)
   + 0.3924394874999848 C163(2) + 800.8846559490801 C164(6)
   + 631.91203904598 C165(7) + 1187.77711095491 C166(6)
   + 635.62408949064 C167(6) + 4052.88770026366 C168(17)
   + 4184.582003132189 C169(17) - 185.9792298 C170(1)
   + 3084.02675044189 C171(15) + 3056.93419931561 C172(15)
   + 1190.99618840389 C173(6) + 2076.44415853892 C174(11)
   + 3445.359245887969 C175(15) + 414.43273483464 C176(4)
   + 1896.80848536076 C177(10) + 1443.22609743558 C178(12)
   + 2925.79536843123 C179(16) + 3290.94530574584 C180(15)
   + 2874.46943726978 C181(15) + 2517.01721556948 C182(12)
   + 3173.864679239609 C183(15) + 342.0467276922899 C184(5)
   + 3058.290695746161 C185(15) + 1288.94609354439 C186(9)
   + 470.05649065332 C187(3) + 3283.72828740418 C188(12)
   + 1790.11676605903 C189(9) + 1811.38493914327 C190(8)
   + 1254.23713512079 C191(7) + 2448.857663318369 C192(17)
   + 1194.69172600666 C193(6) + 3034.431960009259 C194(14)
   + 3080.43778990493 C195(14) + 1138.8454600207 C196(8)
   + 2452.43170636054 C197(12) + 3225.929685831599 C198(11)
   + 2402.45070559153 C199(12) + 1297.61257984847 C200(6)
   + 3644.5267701506 C201(14) - 151.658265697 C202(1)
   + 2729.66576843134 C203(14) + 2379.393243117859 C204(17)
   + 1684.4525206948 C205(8) + 1011.55903908296 C206(4)
   + 453.82465951114 C207(4) + 143.3870224471 C208(3)
   + 95.33618467821 C209(2) + 1103.56898254008 C210(8)
   + 266.3527871632301 C211(4) + 73.07141036013002 C212(2)
   - 36.76163479780001 C213(2) + 162.07093763874 C214(4)
   - 23.83334015930002 C215(2) - 93.89848190895999 C216(2)
   + 97.24825170563997 C217(2) + 59.32666681779 C218(3)
   - 37.09353001074999 C219(2) + 371.2198928097799 C220(3)
   + 112.96289771573 C221(4) + 659.0136202278001 C222(3)
   + 212.72600297014 C223(3) + 93.75597686829997 C224(3)
   + 662.16179540222 C225(3)
Subject To
 c0: 5 C1(16) + 5 C7(15) + 5 C12(5) + 5 C26(13) + 5 C44(13) + 5 C47(14)
   + 5 C52(7) + 5 C54(5) + 5 C55(13) + 5 C56(9) + 5 C58(7) + 5 C61(11)
   + 5 C69(15) + 5 C70(15) + 5 C75(15) + 5 C77(14) + 5 C78(10) + 5 C79(12)
   + 5 C80(12) + 5 C81(14) + 5 C84(16) + 5 C86(17) + 5 C88(14) + 5 C89(13)
   + 5 C96(17) + 5 C97(13) + 5 C100(15) + 5 C101(15) + 5 C106(11)
   + 5 C107(15) + 5 C121(4) + 5 C128(13) + 5 C137(16) + 5 C138(16)
   + 5 C144(14) + 5 C147(17) + 5 C149(9) + 5 C168(17) + 5 C169(17)
   + 5 C171(15) + 5 C175(15) + 5 C177(10) + 5 C180(15) + 5 C181(15)
   + 5 C183(15) + 5 C188(12) + 5 C190(8) + 5 C194(14) + 5 C195(14)
   + 5 C197(12) + 5 C198(11) + 5 C199(12) + 5 C200(6) + 5 C201(14) <= 5
 c1: 9 C0(6) + 9 C1(16) + 9 C3(15) + 9 C4(6) + 5 C8(13) + 9 C12(5)
   + 9 C15(4) + 9 C19(7) + 9 C36(15) + 9 C37(16) + 9 C47(14) + 9 C73(12)
   + 9 C80(12) + 9 C92(12) + 9 C104(17) + 9 C107(15) + 9 C111(11)
   + 9 C113(7) + 9 C120(14) + 9 C129(10) + 9 C134(11) + 9 C137(16)
   + 9 C149(9) + 9 C155(2) + 9 C157(3) + 9 C172(15) + 9 C181(15)
   + 9 C183(15) + 9 C188(12) + 9 C194(14) + 9 C198(11) <= 9
 c2: <= 0
 c3: 5 C0(6) + 5 C1(16) + 5 C7(15) + 5 C10(9) + 5 C19(7) + 5 C24(7)
   + 5 C25(6) + 2 C40(15) + 5 C41(17) + 5 C44(13) + 5 C45(11) + 5 C55(13)
   + 5 C56(9) + 5 C58(7) + 5 C60(5) + 5 C62(11) + 5 C64(6) + 2 C72(14)
   + 5 C75(15) + 5 C77(14) + 5 C78(10) + 5 C84(16) + 5 C107(15)
   + 5 C108(13) + 5 C110(12) + 5 C120(14) + 5 C128(13) + 5 C131(12)
   + 5 C132(11) + 5 C133(13) + 5 C144(14) + 5 C145(14) + 5 C161(8)
   + 5 C164(6) + 5 C165(7) + 5 C175(15) + 5 C181(15) + 5 C192(17)
   + 5 C204(17) + 5 C211(4) + 5 C219(2) + 5 C221(4) <= 5
 c4: 13 C0(6) + 13 C9(14) + 13 C43(14) + C75(15) + 13 C79(12) + 13 C84(16)
   + 13 C89(13) + 13 C92(12) + 9 C104(17) + 13 C107(15) + C109(15)
   + 13 C120(14) + 13 C125(14) + 13 C129(10) + 13 C130(11) + 13 C131(12)
   + 13 C132(11) + 13 C145(14) + 13 C154(2) + 13 C161(8) + 13 C164(6)
   + 13 C165(7) + 13 C179(16) + C192(17) + 13 C203(14) + 13 C204(17) <= 13
 c5: 5 C9(14) + 5 C10(9) + 5 C17(5) + 5 C21(9) + 5 C47(14) + 5 C49(10)
   + 5 C51(13) + 5 C65(9) + 5 C68(6) + 5 C69(15) + 5 C75(15) + 5 C77(14)
   + 5 C78(10) + 5 C79(12) + 5 C80(12) + 5 C83(12) + 5 C84(16) + 5 C87(12)
   + 5 C89(13) + 5 C91(12) + 5 C92(12) + 5 C94(6) + 5 C97(13) + 5 C98(5)
   + 5 C111(11) + 5 C125(14) + 5 C126(6) + 5 C127(8) + 5 C129(10)
   + 5 C135(5) + 5 C147(17) + 5 C192(17) + 5 C194(14) + 5 C195(14)
   + 5 C198(11) <= 5
 c6: <= 0
 c7: 4 C1(16) + 4 C3(15) + 8 C4(6) + 8 C5(4) + 8 C8(13) + 8 C16(9)
   + 8 C21(9) + 8 C23(9) + 4 C26(13) + 8 C28(9) + 8 C29(8) + 8 C32(8)
   + 8 C33(13) + 8 C34(13) + 4 C36(15) + 8 C37(16) + 8 C38(8) + 8 C41(17)
   + 8 C42(7) + 8 C50(7) + 8 C52(7) + 2 C56(9) + 8 C58(7) + 8 C65(9)
   + 8 C69(15) + 8 C70(15) + 8 C72(14) + 8 C84(16) + 8 C86(17) + 4 C96(17)
   + 8 C104(17) + 8 C105(10) + 8 C108(13) + 8 C117(3) + 8 C132(11)
   + 8 C138(16) + 8 C145(14) + 8 C165(7) + 4 C168(17) + 4 C169(17)
   + 8 C172(15) + 8 C173(6) + 8 C176(4) + 8 C178(12) + 5 C180(15)
   + 3 C182(12) + 8 C185(15) + 8 C192(17) + 8 C195(14) + 5 C199(12)
   + 8 C201(14) + 8 C204(17) + 8 C207(4) + 8 C209(2) <= 8
 c8: 9 C1(16) + 9 C7(15) + 9 C9(14) + 9 C16(9) + 9 C30(5) + 9 C34(13)
   + 9 C37(16) + 9 C53(8) + 9 C68(6) + 9 C69(15) + 9 C70(15) + 9 C86(17)
   + 6 C96(17) + 9 C97(13) + 9 C100(15) + 9 C101(15) + 9 C104(17)
   + 9 C109(15) + 9 C120(14) + 9 C134(11) + 9 C137(16) + 9 C138(16)
   + 9 C168(17) + 9 C169(17) + 9 C172(15) + 9 C175(15) + 9 C179(16)
   + 6 C181(15) + 9 C184(5) + 9 C186(9) + 9 C187(3) + 9 C188(12)
   + 9 C189(9) + 9 C190(8) + 9 C191(7) + 9 C192(17) + 6 C194(14)
   + 9 C195(14) + 9 C196(8) + 9 C198(11) + 9 C201(14) + 9 C204(17) <= 9
 c9: 12 C3(15) + 12 C8(13) + 12 C14(5) + 12 C37(16) + 12 C41(17)
   + 12 C47(14) + 12 C68(6) + 12 C69(15) + 12 C75(15) + 12 C80(12)
   + 12 C82(2) + 12 C87(12) + 12 C101(15) + 12 C103(14) + 12 C113(7)
   + 12 C115(5) + 12 C140(16) + 12 C142(15) + 12 C144(14) + 12 C145(14)
   + 12 C147(17) + 12 C152(2) + 12 C156(3) + 12 C157(3) + 12 C159(10)
   + 12 C161(8) + 12 C164(6) + 12 C165(7) + 12 C177(10) + 12 C183(15)
   + 12 C185(15) + 12 C215(2) + 12 C224(3) <= 12
 c10: 5 C1(16) + 5 C3(15) + 5 C7(15) + 5 C9(14) + 5 C24(7) + 5 C32(8)
   + 5 C33(13) + 5 C34(13) + 5 C36(15) + 5 C37(16) + 5 C40(15) + 5 C41(17)
   + 5 C42(7) + 5 C43(14) + 5 C44(13) + 5 C49(10) + 5 C51(13) + 5 C52(7)
   + 5 C54(5) + 5 C59(3) + 5 C62(11) + 5 C75(15) + 5 C77(14) + 5 C81(14)
   + 5 C84(16) + 5 C89(13) + 5 C90(8) + 5 C93(6) + 5 C97(13) + 5 C103(14)
   + 5 C104(17) + 5 C107(15) + 5 C109(15) + 5 C110(12) + 5 C118(6)
   + 5 C125(14) + 5 C126(6) + 5 C130(11) + 5 C137(16) + 5 C138(16)
   + 5 C140(16) + 5 C142(15) + 5 C144(14) + 5 C146(8) + 5 C147(17)
   + 5 C168(17) + 5 C169(17) + 5 C171(15) + 5 C172(15) + 5 C175(15)
   + 5 C180(15) + 5 C184(5) + 5 C185(15) + 5 C197(12) + 5 C198(11)
   + 5 C201(14) + 5 C203(14) + 5 C204(17) <= 5
 c11: 14 C1(16) + 14 C3(15) + 14 C7(15) + 14 C8(13) + 14 C12(5) + 9 C33(13)
   + 9 C34(13) + 14 C36(15) + 9 C40(15) + 14 C47(14) + 14 C74(6)
   + 14 C80(12) + 9 C88(14) + 9 C92(12) + 6 C100(15) + 6 C101(15)
   + 14 C103(14) + 14 C108(13) + 14 C113(7) + 6 C137(16) + 6 C138(16)
   + 14 C140(16) + 14 C142(15) + 14 C145(14) + 9 C146(8) + 14 C149(9)
   + 14 C167(6) + 14 C168(17) + 14 C169(17) + 14 C171(15) + 14 C175(15)
   + 14 C179(16) + 14 C183(15) + 14 C187(3) + 9 C188(12) + 14 C192(17)
   + 14 C195(14) + 14 C196(8) + 14 C203(14) + 14 C206(4) + 14 C220(3)
   <= 14
 c12: 13 C7(15) + 13 C37(16) + 13 C40(15) + 13 C41(17) + 13 C47(14)
   + 13 C50(7) + 13 C51(13) + 13 C69(15) + 13 C70(15) + 13 C72(14)
   + 13 C73(12) + 13 C77(14) + 13 C78(10) + 13 C80(12) + 10 C81(14)
   + 10 C86(17) + 10 C96(17) + 13 C98(5) + 13 C99(8) + 10 C100(15)
   + 10 C101(15) + 10 C105(10) + 13 C106(11) + 13 C114(6) + 13 C116(7)
   + 13 C118(6) + 13 C127(8) + 13 C134(11) + 13 C135(5) + 10 C137(16)
   + 10 C138(16) + 13 C143(6) + 10 C147(17) + 10 C149(9) + 13 C150(3)
   + 13 C151(2) + 10 C168(17) + 10 C169(17) + 13 C172(15) + 6 C174(11)
   + 13 C175(15) + 11 C181(15) + 13 C183(15) + 8 C185(15) + 11 C199(12)
   <= 13
 c13: 8 C9(14) + 8 C10(9) + 8 C18(8) + 8 C21(9) + 8 C23(9) + 8 C25(6)
   + 8 C36(15) + 8 C43(14) + 8 C46(10) + 8 C51(13) + 8 C73(12) + 8 C76(5)
   + 8 C94(6) + 8 C99(8) + 8 C100(15) + 8 C107(15) + 8 C108(13)
   + 8 C110(12) + 8 C112(8) + 8 C124(6) + 8 C158(9) + 8 C178(12)
   + 8 C179(16) + 8 C182(12) + 8 C191(7) + 8 C192(17) + 8 C210(8)
   + 8 C218(3) + 8 C221(4) <= 8
 c14: <= 0
 c15: 12 C9(14) + 12 C10(9) + 12 C13(7) + 12 C15(4) + 12 C19(7) + 12 C21(9)
   + 12 C23(9) + 12 C25(6) + 12 C29(8) + 12 C31(6) + 12 C41(17)
   + 12 C72(14) + 12 C73(12) + 12 C76(5) + 12 C81(14) + 12 C83(12)
   + 12 C87(12) + 12 C89(13) + 12 C91(12) + 12 C96(17) + 12 C105(10)
   + 12 C125(14) + 12 C128(13) + 12 C133(13) + 10 C145(14) + 12 C146(8)
   + 12 C159(10) + 12 C161(8) + 12 C172(15) + 12 C178(12) + 12 C184(5)
   + 12 C200(6) + 12 C201(14) + 12 C204(17) + 12 C210(8) + 12 C214(4)
   + 12 C216(2) <= 12
 c16: 5 C3(15) + 5 C8(13) + 5 C32(8) + 5 C33(13) + 5 C36(15) + 5 C40(15)
   + 5 C69(15) + 5 C70(15) + 5 C73(12) + 5 C76(5) + 5 C77(14) + 5 C80(12)
   + 5 C81(14) + 5 C83(12) + 5 C84(16) + 5 C85(4) + 5 C86(17) + 5 C87(12)
   + 5 C88(14) + 5 C89(13) + 5 C90(8) + 5 C91(12) + 5 C92(12) + 5 C93(6)
   + 5 C94(6) + 5 C97(13) + 5 C103(14) + 5 C104(17) + 5 C106(11)
   + 5 C108(13) + 5 C109(15) + 5 C110(12) + 5 C115(5) + 5 C116(7)
   + 5 C120(14) + 5 C124(6) + 5 C125(14) + 5 C127(8) + 5 C128(13)
   + 5 C140(16) + 5 C142(15) + 5 C145(14) + 5 C147(17) + 5 C159(10)
   + 5 C160(6) + 5 C171(15) + 5 C174(11) + 5 C178(12) + 5 C203(14)
   + 5 C205(8) <= 5
 c17: 11 C0(6) + 11 C1(16) + 11 C16(9) + 11 C17(5) + 4 C18(8) + 11 C26(13)
   + 11 C28(9) + 11 C43(14) + 11 C46(10) + 11 C47(14) + 11 C50(7)
   + 11 C51(13) + 3 C53(8) + 11 C55(13) + 11 C57(12) + 11 C61(11)
   + 11 C64(6) + 11 C69(15) + 11 C70(15) + 11 C72(14) + 11 C75(15)
   + 11 C79(12) + 11 C80(12) + 11 C84(16) + 11 C88(14) + 11 C89(13)
   + 11 C92(12) + 10 C100(15) + 10 C101(15) + 3 C105(10) + 3 C106(11)
   + 11 C107(15) + 11 C125(14) + 11 C127(8) + 11 C131(12) + 11 C132(11)
   + 11 C137(16) + 11 C138(16) + 11 C144(14) + 11 C146(8) + 11 C149(9)
   + 11 C153(3) + 11 C166(6) + 11 C183(15) + 11 C185(15) + 4 C188(12)
   + 11 C190(8) + 4 C192(17) + 11 C193(6) + 3 C194(14) + 11 C195(14)
   + 11 C197(12) + 11 C201(14) + 11 C210(8) + 11 C217(2) + 11 C223(3)
   <= 11
 c18: 6 C1(16) + 6 C3(15) + 6 C4(6) + 6 C9(14) + 6 C16(9) + 6 C26(13)
   + 6 C29(8) + 6 C33(13) + 6 C36(15) + 6 C37(16) + 6 C41(17) + 6 C43(14)
   + 6 C47(14) + 6 C50(7) + 6 C56(9) + 6 C62(11) + 6 C65(9) + 6 C84(16)
   + 6 C87(12) + 6 C96(17) + 6 C99(8) + 6 C100(15) + 6 C101(15)
   + 6 C103(14) + 6 C104(17) + 6 C109(15) + 6 C113(7) + 6 C129(10)
   + 6 C131(12) + 6 C133(13) + 6 C137(16) + 6 C140(16) + 6 C149(9)
   + 6 C162(9) + 6 C168(17) + 6 C169(17) + 6 C171(15) + 6 C172(15)
   + 6 C179(16) + 6 C180(15) + 6 C181(15) + 6 C182(12) + 6 C183(15)
   + 6 C191(7) + 6 C192(17) + 6 C195(14) + 6 C196(8) + 6 C197(12)
   + 6 C199(12) + 6 C203(14) + 6 C204(17) <= 6
 c19: 8 C1(16) + 5 C3(15) + 5 C13(7) + 5 C16(9) + 6 C19(7) + 8 C23(9)
   + 8 C34(13) + 5 C36(15) + 4 C41(17) + 8 C43(14) + 8 C44(13) + 8 C47(14)
   + 8 C49(10) + 8 C51(13) + 8 C55(13) + 8 C56(9) + 8 C57(12) + 8 C58(7)
   + 8 C67(5) + 8 C69(15) + 8 C70(15) + 8 C73(12) + 8 C80(12) + 5 C81(14)
   + 8 C86(17) + 8 C87(12) + 8 C88(14) + 8 C100(15) + 8 C101(15)
   + 5 C103(14) + 8 C109(15) + 8 C110(12) + 5 C119(6) + 8 C123(4)
   + 8 C131(12) + 8 C133(13) + 8 C134(11) + 8 C138(16) + 5 C140(16)
   + 8 C159(10) + 8 C164(6) + 8 C166(6) + 8 C169(17) + 8 C174(11)
   + 8 C179(16) + 8 C180(15) + 8 C183(15) + 8 C185(15) + 7 C188(12)
   + 8 C192(17) + 8 C198(11) + 8 C200(6) + 8 C201(14) + 5 C203(14)
   + 4 C204(17) + 8 C205(8) <= 8
 c20: 10 C3(15) + 10 C8(13) + 10 C13(7) + 10 C16(9) + 10 C18(8) + 10 C20(4)
   + 9 C26(13) + 9 C28(9) + 9 C29(8) + 10 C31(6) + 7 C34(13) + 10 C36(15)
   + 10 C45(11) + 9 C46(10) + 10 C48(4) + 7 C51(13) + 7 C57(12) + 10 C60(5)
   + 9 C61(11) + 7 C67(5) + 7 C69(15) + 7 C70(15) + 10 C81(14) + 7 C86(17)
   + 7 C87(12) + 7 C88(14) + 9 C91(12) + 9 C96(17) + 10 C99(8) + 7 C100(15)
   + 7 C101(15) + 10 C103(14) + 10 C108(13) + 10 C111(11) + 10 C114(6)
   + 10 C119(6) + 9 C122(6) + 9 C127(8) + 10 C128(13) + 6 C137(16)
   + 7 C138(16) + 10 C140(16) + 10 C142(15) + 10 C145(14) + 9 C147(17)
   + 10 C158(9) + 9 C160(6) + 9 C162(9) + 7 C166(6) + 10 C168(17)
   + 7 C169(17) + 10 C171(15) + 10 C175(15) + 9 C182(12) + 7 C185(15)
   + 8 C188(12) + 9 C191(7) + 9 C193(6) + 9 C194(14) + 9 C195(14)
   + 9 C197(12) + 7 C201(14) + 10 C203(14) <= 10
 c21: 8 C3(15) + 8 C7(15) + 8 C9(14) + 8 C18(8) + 8 C21(9) + 8 C32(8)
   + 8 C33(13) + 8 C34(13) + 8 C36(15) + 8 C38(8) + 8 C41(17) + 8 C43(14)
   + 8 C45(11) + 8 C55(13) + 8 C72(14) + 8 C103(14) + 8 C109(15)
   + 8 C111(11) + 8 C140(16) + 8 C142(15) + 8 C143(6) + 8 C162(9)
   + 8 C168(17) + 8 C169(17) + 8 C171(15) + 8 C173(6) + 8 C174(11)
   + 8 C175(15) + 8 C176(4) + 8 C179(16) + 8 C181(15) + 8 C183(15)
   + 8 C186(9) + 8 C188(12) + 8 C189(9) + 8 C190(8) + 8 C192(17)
   + 8 C195(14) + 8 C196(8) + 8 C197(12) + 8 C199(12) + 8 C203(14)
   + 8 C207(4) <= 8
 c22: 10 C7(15) + 10 C9(14) + 11 C18(8) + 10 C40(15) + 11 C42(7)
   + 10 C44(13) + 4 C72(14) + 11 C73(12) + 11 C74(6) + 11 C75(15)
   + 10 C77(14) + 11 C78(10) + 4 C84(16) + 10 C86(17) + 4 C89(13)
   + 10 C91(12) + 11 C94(6) + 10 C96(17) + 10 C97(13) + 11 C107(15)
   + 10 C128(13) + 11 C144(14) + 10 C147(17) + 11 C167(6) + 10 C168(17)
   + 10 C169(17) + 11 C171(15) + 10 C174(11) + 10 C175(15) + 11 C177(10)
   + 10 C179(16) + 10 C180(15) + 11 C181(15) + 11 C188(12) + 11 C192(17)
   + 11 C194(14) + 10 C198(11) + 10 C199(12) + 11 C208(3) <= 11
 c23: 14 C11(7) + 14 C26(13) + 14 C28(9) + 14 C29(8) + 14 C31(6)
   + 14 C37(16) + 9 C38(8) + 14 C44(13) + 14 C46(10) + 14 C54(5)
   + 14 C55(13) + 14 C60(5) + 14 C65(9) + 14 C72(14) + 14 C77(14)
   + 14 C79(12) + 14 C83(12) + 14 C84(16) + 14 C85(4) + 6 C86(17)
   + 14 C89(13) + 14 C90(8) + 14 C91(12) + 14 C93(6) + 9 C96(17)
   + 6 C97(13) + 6 C104(17) + 14 C105(10) + 14 C106(11) + 6 C109(15)
   + 14 C110(12) + 14 C116(7) + 14 C119(6) + 14 C125(14) + 14 C128(13)
   + 14 C133(13) + 6 C134(11) + 14 C147(17) + 14 C161(8) + 14 C172(15)
   + 14 C173(6) + 14 C180(15) + 9 C181(15) + 14 C182(12) + C183(15)
   + 14 C185(15) + 14 C186(9) + 14 C190(8) + 9 C194(14) + 14 C197(12)
   + 14 C199(12) + 14 C200(6) + 14 C201(14) + 14 C204(17) + 14 C211(4)
   + 14 C212(2) <= 14
 c24: 7 C7(15) + 7 C9(14) + 7 C18(8) + 7 C26(13) + 7 C31(6) + 7 C37(16)
   + 7 C41(17) + 7 C43(14) + 6 C46(10) + 7 C47(14) + 7 C49(10) + 7 C52(7)
   + 7 C56(9) + 7 C58(7) + 7 C62(11) + 7 C64(6) + 7 C67(5) + 7 C75(15)
   + 7 C79(12) + 7 C81(14) + 7 C83(12) + 7 C99(8) + 7 C100(15) + 7 C101(15)
   + 7 C103(14) + 7 C104(17) + 7 C107(15) + 7 C108(13) + 7 C109(15)
   + 7 C112(8) + 7 C113(7) + 7 C114(6) + 7 C116(7) + 7 C119(6) + 7 C120(14)
   + 7 C125(14) + 7 C128(13) + 7 C129(10) + 6 C130(11) + 7 C131(12)
   + 7 C133(13) + 7 C134(11) + 7 C142(15) + 7 C159(10) + 7 C166(6)
   + 7 C175(15) + 7 C177(10) + 7 C178(12) + 7 C179(16) + 7 C183(15)
   + 7 C186(9) + 7 C188(12) + 7 C189(9) + 7 C193(6) + 7 C196(8) <= 7
 c25: 12 C1(16) + 12 C8(13) + 5 C9(14) + 10 C11(7) + 10 C14(5) + 12 C21(9)
   + 12 C24(7) + 12 C25(6) + 12 C26(13) + 12 C27(2) + 10 C30(5)
   + 12 C41(17) + 12 C51(13) + 12 C62(11) + 12 C69(15) + 12 C70(15)
   + 12 C86(17) + 12 C87(12) + 12 C88(14) + 12 C91(12) + 12 C92(12)
   + 5 C97(13) + 5 C100(15) + 5 C101(15) + 12 C108(13) + 12 C112(8)
   + 12 C120(14) + 12 C125(14) + 5 C128(13) + 12 C130(11) + 12 C131(12)
   + 12 C136(5) + 12 C137(16) + 12 C138(16) + 12 C141(4) + 12 C143(6)
   + 12 C145(14) + 12 C146(8) + 12 C148(4) + 12 C159(10) + 12 C161(8)
   + 12 C162(9) + 12 C163(2) + 5 C168(17) + 5 C169(17) + 12 C171(15)
   + 5 C174(11) + 12 C178(12) + 5 C179(16) + 12 C181(15) + 12 C182(12)
   + 12 C185(15) + 12 C189(9) + 12 C194(14) + 12 C196(8) + 5 C199(12)
   + 12 C201(14) + 12 C205(8) + 12 C210(8) + 12 C223(3) + 12 C225(3) <= 12
 c26: 6 C7(15) + 6 C10(9) + 6 C37(16) + 6 C40(15) + 2 C44(13) + 6 C45(11)
   + 6 C49(10) + 6 C50(7) + 2 C55(13) + 6 C57(12) + 6 C72(14) + 6 C81(14)
   + 6 C83(12) + 6 C90(8) + 6 C104(17) + 5 C111(11) + 6 C134(11)
   + 6 C136(5) + 6 C137(16) + 6 C138(16) + 6 C140(16) + 6 C141(4)
   + 6 C142(15) + 6 C147(17) + 6 C158(9) + 6 C160(6) + 6 C175(15)
   + 6 C180(15) + 6 C194(14) + 6 C204(17) + 6 C206(4) + 6 C214(4)
   + 6 C220(3) <= 6
 c27: <= 0
 c28: 7 C7(15) + 7 C10(9) + 7 C11(7) + 7 C15(4) + 7 C40(15) + 7 C50(7)
   + 7 C62(11) + 7 C64(6) + 7 C68(6) + 7 C69(15) + 7 C70(15) + 7 C72(14)
   + 7 C73(12) + 7 C74(6) + 7 C77(14) + 7 C78(10) + 7 C80(12) + 7 C83(12)
   + 7 C86(17) + 7 C87(12) + 7 C88(14) + 7 C90(8) + 7 C91(12) + 7 C92(12)
   + 7 C93(6) + 7 C95(4) + 7 C96(17) + 7 C97(13) + 7 C98(5) + 7 C112(8)
   + 7 C142(15) + 7 C144(14) + 7 C158(9) <= 7
 c29: <= 0
 c30: <= 0
 c31: 5 C1(16) + 5 C3(15) + 5 C5(4) + 5 C6(3) + 5 C8(13) + 5 C13(7)
   + 5 C19(7) + 5 C23(9) + 5 C26(13) + 5 C32(8) + 5 C33(13) + 5 C34(13)
   + 5 C36(15) + 5 C38(8) + 5 C39(4) + 5 C42(7) + 5 C48(4) + 5 C53(8)
   + 5 C55(13) + 5 C57(12) + 5 C61(11) + 5 C62(11) + 5 C72(14) + 5 C73(12)
   + 5 C75(15) + 5 C79(12) + 5 C81(14) + 5 C83(12) + 5 C86(17) + 5 C96(17)
   + 5 C100(15) + 5 C101(15) + 5 C103(14) + 5 C105(10) + 5 C107(15)
   + 5 C117(3) + 5 C120(14) + 5 C121(4) + 5 C125(14) + 5 C128(13)
   + 5 C130(11) + 5 C133(13) + 5 C137(16) + 5 C138(16) + 5 C140(16)
   + 5 C144(14) + 5 C149(9) + 5 C159(10) + 5 C162(9) + 5 C168(17)
   + 5 C169(17) + 5 C171(15) + 5 C173(6) + 5 C174(11) + 5 C177(10)
   + 3 C178(12) + 5 C182(12) + 5 C185(15) + 5 C186(9) + 5 C189(9)
   + 5 C190(8) + 5 C193(6) + 5 C201(14) + 5 C203(14) + 5 C205(8) <= 5
 c32: 10 C8(13) + 10 C13(7) + 10 C17(5) + 10 C20(4) + 10 C21(9) + 10 C24(7)
   + 6 C36(15) + 10 C44(13) + 10 C55(13) + 8 C57(12) + 10 C68(6)
   + 10 C69(15) + 10 C70(15) + 10 C72(14) + 10 C75(15) + 10 C77(14)
   + 10 C78(10) + 10 C79(12) + 10 C81(14) + 10 C84(16) + 10 C86(17)
   + 10 C87(12) + 10 C88(14) + 10 C89(13) + 10 C91(12) + 10 C94(6)
   + 10 C95(4) + 10 C96(17) + 10 C97(13) + 6 C107(15) + 6 C120(14)
   + 5 C128(13) + 10 C130(11) + 10 C131(12) + 10 C132(11) + 10 C133(13)
   + 10 C147(17) + 10 C179(16) + 10 C180(15) + 10 C210(8) + 10 C211(4)
   + 10 C214(4) <= 10
 c33: 12 C3(15) + 12 C4(6) + 12 C5(4) + 12 C6(3) + 12 C10(9) + 12 C32(8)
   + 12 C33(13) + 12 C34(13) + 12 C36(15) + 12 C37(16) + 12 C38(8)
   + 12 C39(4) + 4 C42(7) + 12 C45(11) + 12 C53(8) + 12 C62(11) + 12 C65(9)
   + 12 C93(6) + 12 C103(14) + 12 C104(17) + 12 C105(10) + 12 C106(11)
   + 12 C109(15) + 12 C111(11) + 12 C115(5) + 12 C118(6) + 12 C119(6)
   + 12 C122(6) + 12 C124(6) + 12 C126(6) + 12 C129(10) + 12 C130(11)
   + 12 C133(13) + 12 C134(11) + 12 C135(5) + 12 C140(16) + 12 C142(15)
   + 10 C172(15) + 12 C173(6) + 12 C203(14) + 12 C204(17) + 12 C205(8)
   <= 12
 c34: <= 0
 c35: 15 C33(13) + 15 C34(13) + 15 C37(16) + 15 C38(8) + 10 C41(17)
   + 15 C43(14) + 15 C45(11) + 15 C46(10) + 4 C47(14) + 15 C49(10)
   + 15 C53(8) + 15 C57(12) + 15 C60(5) + 15 C65(9) + 15 C83(12)
   + 15 C90(8) + 15 C99(8) + 15 C100(15) + 15 C101(15) + 15 C104(17)
   + 15 C105(10) + 10 C108(13) + 15 C109(15) + 10 C110(12) + 15 C111(11)
   + 15 C113(7) + 15 C115(5) + 15 C116(7) + 15 C118(6) + 15 C122(6)
   + 15 C123(4) + 15 C124(6) + 15 C126(6) + 15 C129(10) + 15 C130(11)
   + 15 C133(13) + 15 C135(5) + 15 C146(8) + 15 C158(9) + 10 C172(15)
   + 10 C178(12) + 15 C204(17) <= 15
 c36: 15 C16(9) + 15 C22(2) + 15 C23(9) + 15 C26(13) + 6 C47(14)
   + 15 C57(12) + 15 C61(11) + 15 C62(11) + 15 C63(2) + 15 C65(9)
   + 15 C75(15) + 15 C79(12) + 15 C83(12) + 15 C84(16) + 15 C89(13)
   + 15 C90(8) + 6 C129(10) + 15 C130(11) + 15 C136(5) + 15 C137(16)
   + 15 C138(16) + 15 C140(16) + 15 C141(4) + 15 C142(15) + 15 C143(6)
   + 15 C144(14) + 15 C145(14) + 15 C147(17) + 15 C148(4) + 15 C149(9)
   + 15 C153(3) + 15 C158(9) + 15 C159(10) + 15 C160(6) + 15 C161(8)
   + 15 C162(9) + 15 C164(6) + 15 C165(7) + 15 C192(17) + 15 C195(14)
   + 15 C208(3) + 15 C213(2) + 15 C221(4) + 15 C222(3) + 15 C224(3) <= 16
 c37: 6 C4(6) + C8(13) + 6 C11(7) + 6 C23(9) + 6 C24(7) + 6 C26(13)
   + 6 C28(9) + 6 C29(8) + 6 C37(16) + 6 C41(17) + 6 C43(14) + 6 C44(13)
   + 6 C46(10) + 6 C55(13) + 6 C61(11) + 6 C91(12) + 6 C96(17) + 6 C104(17)
   + 6 C109(15) + 6 C122(6) + 6 C123(4) + 6 C125(14) + 6 C127(8)
   + 6 C134(11) + 5 C142(15) + 6 C147(17) + 5 C158(9) + 6 C159(10)
   + 6 C160(6) + 6 C162(9) + 6 C167(6) + 5 C168(17) + 5 C171(15)
   + 6 C172(15) + 6 C179(16) + 6 C180(15) + 6 C182(12) + 6 C183(15)
   + 6 C191(7) + 6 C193(6) + 6 C194(14) + 6 C195(14) + 6 C197(12)
   + 6 C198(11) + 6 C204(17) + 6 C205(8) <= 6
 c38: 8 C0(6) + 8 C1(16) + 8 C17(5) + 8 C39(4) + 8 C40(15) + 8 C51(13)
   + 8 C53(8) + 8 C61(11) + 8 C73(12) + 8 C80(12) + 8 C92(12) + 8 C106(11)
   + 8 C116(7) + 8 C118(6) + 8 C126(6) + 8 C127(8) + 8 C145(14)
   + 8 C147(17) + 8 C194(14) + 8 C205(8) <= 8
 c39: <= 0
 c40: 14 C7(15) + 14 C9(14) + 14 C10(9) + 14 C19(7) + 14 C40(15)
   + 14 C43(14) + 14 C45(11) + 14 C49(10) + 14 C61(11) + 14 C75(15)
   + 14 C84(16) + 14 C92(12) + 14 C106(11) + 14 C107(15) + 14 C109(15)
   + 14 C111(11) + 14 C120(14) + 14 C129(10) + 14 C131(12) + 14 C132(11)
   + 14 C144(14) + 14 C145(14) + 14 C156(3) + 14 C165(7) + 14 C179(16)
   + 14 C192(17) + 14 C195(14) + 14 C200(6) + 14 C201(14) + 14 C203(14)
   + 14 C204(17) + 14 C210(8) <= 14
 c41: 5 C1(16) + 5 C7(15) + 5 C9(14) + 5 C11(7) + 5 C12(5) + 5 C14(5)
   + 5 C21(9) + 5 C25(6) + 5 C26(13) + 5 C30(5) + 5 C40(15) + 5 C41(17)
   + 5 C44(13) + 5 C51(13) + 5 C69(15) + 5 C70(15) + 5 C73(12) + 5 C74(6)
   + 5 C77(14) + 5 C81(14) + 5 C86(17) + 5 C88(14) + 5 C91(12) + 5 C96(17)
   + 5 C97(13) + 5 C99(8) + 5 C100(15) + 5 C101(15) + 5 C108(13)
   + 5 C110(12) + 5 C112(8) + 5 C114(6) + 5 C120(14) + 5 C125(14)
   + 5 C128(13) + 5 C131(12) + 5 C132(11) + 5 C137(16) + 5 C138(16)
   + 5 C147(17) + 5 C168(17) + 5 C169(17) + 5 C172(15) + 5 C174(11)
   + 5 C175(15) + 4 C177(10) + 5 C178(12) + 5 C179(16) + 5 C180(15)
   + 5 C182(12) + 5 C185(15) + 5 C189(9) + 5 C198(11) + 5 C199(12)
   + 5 C201(14) + 5 C206(4) + 5 C210(8) + 5 C222(3) + 5 C225(3) <= 5
 c42: 4 C8(13) + 4 C18(8) + 4 C20(4) + 4 C31(6) + 4 C33(13) + 4 C40(15)
   + 4 C43(14) + 4 C44(13) + 4 C45(11) + 4 C49(10) + 4 C55(13) + 4 C57(12)
   + 4 C61(11) + 4 C62(11) + 4 C67(5) + 4 C77(14) + 4 C78(10) + 4 C88(14)
   + 4 C98(5) + 4 C108(13) + 4 C110(12) + 4 C111(11) + 4 C121(4)
   + 4 C122(6) + 4 C130(11) + 4 C133(13) + 4 C140(16) + 4 C142(15)
   + 4 C144(14) + 4 C145(14) + 4 C147(17) + 4 C162(9) + 4 C166(6)
   + 4 C167(6) + 4 C171(15) + 4 C174(11) + 4 C175(15) + 3 C177(10)
   + 4 C178(12) + 4 C179(16) + 4 C180(15) + 4 C181(15) + 2 C183(15)
   + 2 C185(15) + 3 C186(9) + 4 C190(8) + 4 C191(7) + 4 C192(17)
   + 4 C195(14) + 4 C197(12) + 4 C199(12) <= 4
 c43: <= 0
 c44: 11 C3(15) + 7 C8(13) + 7 C23(9) + 7 C28(9) + 12 C37(16) + 12 C41(17)
   + 12 C44(13) + 12 C45(11) + 12 C46(10) + 12 C47(14) + 12 C56(9)
   + 12 C57(12) + 7 C70(15) + 12 C79(12) + 7 C86(17) + 12 C87(12)
   + 12 C88(14) + 11 C96(17) + 12 C103(14) + 12 C104(17) + 12 C107(15)
   + 12 C108(13) + 12 C110(12) + 12 C111(11) + 12 C112(8) + 12 C120(14)
   + 12 C132(11) + 12 C140(16) + 12 C144(14) + 12 C167(6) + 11 C168(17)
   + 11 C169(17) + 12 C171(15) + 7 C172(15) + 12 C174(11) + 12 C177(10)
   + 12 C178(12) + 10 C180(15) + 12 C181(15) + 12 C182(12) + 12 C183(15)
   + 7 C185(15) + 12 C186(9) + 12 C189(9) + 12 C192(17) + 12 C196(8)
   + 12 C197(12) + 10 C199(12) + 12 C203(14) + 12 C204(17) <= 12
 c45: 6 C1(16) + 6 C7(15) + 6 C28(9) + 6 C29(8) + 6 C33(13) + 6 C34(13)
   + 6 C38(8) + 6 C40(15) + 6 C43(14) + 6 C45(11) + 6 C49(10) + 6 C51(13)
   + 6 C52(7) + 6 C56(9) + 6 C58(7) + 6 C64(6) + 6 C66(2) + 6 C70(15)
   + 6 C72(14) + 6 C74(6) + 6 C76(5) + 6 C77(14) + 6 C78(10) + 6 C81(14)
   + 6 C83(12) + 6 C85(4) + 6 C86(17) + 6 C88(14) + 6 C92(12) + 6 C95(4)
   + 6 C96(17) + 6 C97(13) + 6 C104(17) + 6 C105(10) + 6 C106(11)
   + 6 C109(15) + 6 C132(11) + 6 C133(13) + 6 C134(11) + 6 C136(5)
   + 6 C137(16) + 6 C138(16) + 6 C146(8) + 6 C148(4) + 6 C168(17)
   + 6 C169(17) + 6 C175(15) + 6 C180(15) + 6 C181(15) + 6 C186(9)
   + 6 C188(12) + 6 C194(14) + 6 C198(11) <= 6
 c46: 6 C3(15) + 6 C11(7) + 6 C13(7) + 6 C14(5) + 6 C16(9) + 6 C24(7)
   + 6 C28(9) + 6 C30(5) + 6 C32(8) + 6 C33(13) + 6 C34(13) + 6 C36(15)
   + 6 C37(16) + 6 C40(15) + 6 C41(17) + 6 C42(7) + 6 C46(10) + 6 C48(4)
   + 6 C51(13) + 6 C52(7) + 6 C53(8) + 6 C54(5) + 6 C55(13) + 6 C57(12)
   + 6 C59(3) + 6 C61(11) + 6 C65(9) + 6 C75(15) + 6 C79(12) + 6 C84(16)
   + 6 C89(13) + 6 C103(14) + 6 C104(17) + 6 C106(11) + 6 C107(15)
   + 6 C110(12) + 6 C112(8) + 6 C114(6) + 6 C120(14) + 6 C124(6)
   + 6 C125(14) + 6 C131(12) + 6 C132(11) + 6 C140(16) + 6 C142(15)
   + 6 C143(6) + 6 C144(14) + 6 C150(3) + 6 C158(9) + 6 C171(15)
   + 6 C172(15) + 6 C176(4) + 6 C177(10) + 6 C181(15) + 6 C182(12)
   + 6 C184(5) + 6 C185(15) + 6 C189(9) + 6 C197(12) + 6 C203(14)
   + 6 C204(17) + 6 C207(4) + 6 C218(3) <= 6
 c47: C0(6) + C1(16) + C2(1) + C3(15) + C4(6) + C5(4) + C6(3) + C7(15)
   + C8(13) + C9(14) + C10(9) + C11(7) + C12(5) + C13(7) + C14(5) + C15(4)
   + C16(9) + C17(5) + C18(8) + C19(7) + C20(4) + C21(9) + C22(2) + C23(9)
   + C24(7) + C25(6) + C26(13) + C27(2) + C28(9) + C29(8) + C30(5) + C31(6)
   = 1
 c48: C32(8) + C33(13) + C34(13) + C35(1) + C36(15) + C37(16) + C38(8)
   + C39(4) + C40(15) + C41(17) + C42(7) + C43(14) + C44(13) + C45(11)
   + C46(10) + C47(14) + C48(4) + C49(10) + C50(7) + C51(13) + C52(7)
   + C53(8) + C54(5) + C55(13) + C56(9) + C57(12) + C58(7) + C59(3)
   + C60(5) + C61(11) + C62(11) + C63(2) + C64(6) + C65(9) + C66(2)
   + C67(5) = 1
 c49: C68(6) + C69(15) + C70(15) + C71(1) + C72(14) + C73(12) + C74(6)
   + C75(15) + C76(5) + C77(14) + C78(10) + C79(12) + C80(12) + C81(14)
   + C82(2) + C83(12) + C84(16) + C85(4) + C86(17) + C87(12) + C88(14)
   + C89(13) + C90(8) + C91(12) + C92(12) + C93(6) + C94(6) + C95(4)
   + C96(17) + C97(13) + C98(5) = 1
 c50: C99(8) + C100(15) + C101(15) + C102(1) + C103(14) + C104(17)
   + C105(10) + C106(11) + C107(15) + C108(13) + C109(15) + C110(12)
   + C111(11) + C112(8) + C113(7) + C114(6) + C115(5) + C116(7) + C117(3)
   + C118(6) + C119(6) + C120(14) + C121(4) + C122(6) + C123(4) + C124(6)
   + C125(14) + C126(6) + C127(8) + C128(13) + C129(10) + C130(11)
   + C131(12) + C132(11) + C133(13) + C134(11) + C135(5) = 1
 c51: C136(5) + C137(16) + C138(16) + C139(1) + C140(16) + C141(4)
   + C142(15) + C143(6) + C144(14) + C145(14) + C146(8) + C147(17)
   + C148(4) + C149(9) + C150(3) + C151(2) + C152(2) + C153(3) + C154(2)
   + C155(2) + C156(3) + C157(3) + C158(9) + C159(10) + C160(6) + C161(8)
   + C162(9) + C163(2) + C164(6) + C165(7) + C166(6) = 1
 c52: C167(6) + C168(17) + C169(17) + C170(1) + C171(15) + C172(15)
   + C173(6) + C174(11) + C175(15) + C176(4) + C177(10) + C178(12)
   + C179(16) + C180(15) + C181(15) + C182(12) + C183(15) + C184(5)
   + C185(15) + C186(9) + C187(3) + C188(12) + C189(9) + C190(8) + C191(7)
   + C192(17) + C193(6) + C194(14) + C195(14) + C196(8) + C197(12)
   + C198(11) + C199(12) = 1
 c53: C200(6) + C201(14) + C202(1) + C203(14) + C204(17) + C205(8)
   + C206(4) + C207(4) + C208(3) + C209(2) + C210(8) + C211(4) + C212(2)
   + C213(2) + C214(4) + C215(2) + C216(2) + C217(2) + C218(3) + C219(2)
   + C220(3) + C221(4) + C222(3) + C223(3) + C224(3) + C225(3) = 1
Bounds
End
